p cnf 36 129
1 2 0
-1 -2 0
13 14 0
-13 -14 0
25 26 0
-25 -26 0
3 4 0
-3 -4 0
15 16 0
-15 -16 0
27 28 0
-27 -28 0
5 6 0
-5 -6 0
17 18 0
-17 -18 0
29 30 0
-29 -30 0
7 8 0
-7 -8 0
19 20 0
-19 -20 0
31 32 0
-31 -32 0
9 10 0
-9 -10 0
21 22 0
-21 -22 0
33 34 0
-33 -34 0
11 12 0
-11 -12 0
23 24 0
-23 -24 0
35 36 0
-35 -36 0
-1 -13 -25 4 0
-1 -14 -25 4 0
-1 -13 -26 4 0
-1 -14 -26 4 0
-2 -13 -25 4 0
-2 -14 -25 4 0
-2 -13 -26 4 0
-2 -14 -26 3 0
-13 -1 16 0
-13 -2 16 0
-14 -1 16 0
-14 -2 15 0
-25 -1 28 0
-25 -2 28 0
-26 -1 28 0
-26 -2 27 0
-3 -15 -27 6 0
-3 -16 -27 6 0
-3 -15 -28 6 0
-3 -16 -28 6 0
-4 -15 -27 6 0
-4 -16 -27 6 0
-4 -15 -28 6 0
-4 -16 -28 5 0
-15 -3 18 0
-15 -4 18 0
-16 -3 18 0
-16 -4 17 0
-27 -3 30 0
-27 -4 30 0
-28 -3 30 0
-28 -4 29 0
-5 -17 -29 8 0
-5 -18 -29 8 0
-5 -17 -30 8 0
-5 -18 -30 8 0
-6 -17 -29 8 0
-6 -18 -29 8 0
-6 -17 -30 8 0
-6 -18 -30 7 0
-17 -5 20 0
-17 -6 20 0
-18 -5 20 0
-18 -6 19 0
-29 -5 32 0
-29 -6 32 0
-30 -5 32 0
-30 -6 31 0
-7 -19 -31 10 0
-7 -20 -31 10 0
-7 -19 -32 10 0
-7 -20 -32 10 0
-8 -19 -31 10 0
-8 -20 -31 10 0
-8 -19 -32 10 0
-8 -20 -32 9 0
-19 -7 22 0
-19 -8 22 0
-20 -7 22 0
-20 -8 21 0
-31 -7 34 0
-31 -8 34 0
-32 -7 34 0
-32 -8 33 0
-9 -21 -33 12 0
-9 -22 -33 12 0
-9 -21 -34 12 0
-9 -22 -34 12 0
-10 -21 -33 12 0
-10 -22 -33 12 0
-10 -21 -34 12 0
-10 -22 -34 11 0
-21 -9 24 0
-21 -10 24 0
-22 -9 24 0
-22 -10 23 0
-33 -9 36 0
-33 -10 36 0
-34 -9 36 0
-34 -10 35 0
-11 -23 -35 0
-12 -24 -36 0
-1 -13 -25 0
-2 -14 -26 0
-3 -15 -27 0
-4 -16 -28 0
-5 -17 -29 0
-6 -18 -30 0
-7 -19 -31 0
-8 -20 -32 0
-9 -21 -33 0
-10 -22 -34 0
-25 -14 0
